27 27
21
3 3 6 24
3 4 13 0
3 5 6 19
3 6 3 21
3 7 20 0
3 8 0 19
3 9 0 0
3 10 0 9
3 11 13 16
3 12 13 4
3 19 10 0
3 20 20 7
3 21 3 0
4 3 23 4
4 4 23 0
4 6 23 21
4 7 16 20
4 8 9 19
4 14 23 7
4 19 6 0
4 20 16 0
% time elapsed: 53.03 s
% time elapsed: 53.03 s
%%%mzn-stat: initTime=0.000348
%%%mzn-stat: solveTime=52.9433
%%%mzn-stat: solutions=73
%%%mzn-stat: variables=43
%%%mzn-stat: propagators=26
%%%mzn-stat: propagations=31507044
%%%mzn-stat: nodes=6885625
%%%mzn-stat: failures=3440016
%%%mzn-stat: restarts=334
%%%mzn-stat: peakDepth=69
%%%mzn-stat-end
